p cnf 19 8
a 1 2 3 0
e 4 0
a 5 0
e 6 0
a 7 8 0
e 9 10 11 12 13 0
a 14 15 16 17 0
e 18 19 0
7 18 -16 -14 11 0
17 9 10 11 0
15 -8 16 0
-1 -12 14 -9 -13 0
6 8 0
-18 4 -10 -5 1 0
19 -17 -11 2 0
-9 18 -17 -7 0
